feasible solution found by trivial heuristic after 0.0 seconds, objective value -1.000000e+05
presolving:
(round 1, fast)       21 del vars, 119 del conss, 0 add conss, 7 chg bounds, 10 chg sides, 20 chg coeffs, 0 upgd conss, 0 impls, 0 clqs
   (0.0s) running MILP presolver
   (0.0s) MILP presolver found nothing
(round 2, exhaustive) 22 del vars, 119 del conss, 0 add conss, 7 chg bounds, 10 chg sides, 20 chg coeffs, 3088 upgd conss, 0 impls, 0 clqs
   (0.1s) probing: 51/3200 (1.6%) - 0 fixings, 0 aggregations, 0 implications, 0 bound changes
   (0.1s) probing aborted: 50/50 successive totally useless probings
   (0.1s) symmetry computation started: requiring (bin +, int -, cont +), (fixed: bin -, int +, cont -)
   (0.1s) no symmetry present
presolving (3 rounds: 3 fast, 2 medium, 2 exhaustive):
 22 deleted vars, 119 deleted constraints, 0 added constraints, 7 tightened bounds, 0 added holes, 10 changed sides, 20 changed coefficients
 0 implications, 0 cliques
presolved problem has 3200 variables (3200 bin, 0 int, 0 impl, 0 cont) and 3088 constraints
   3088 constraints of type <logicor>
Presolving Time: 0.06

 time | node  | left  |LP iter|LP it/n|mem/heur|mdpt |vars |cons |rows |cuts |sepa|confs|strbr|  dualbound   | primalbound  |  gap   | compl. 
t 0.1s|     1 |     0 |     0 |     - | trivial|   0 |3200 |3088 |   0 |   0 |  0 |   0 |   0 | 3.091005e+03 | 3.004526e+00 |  Large | unknown
p 0.1s|     1 |     0 |     0 |     - |   locks|   0 |3200 |3088 |3088 |   0 |  0 |   0 |   0 | 3.091005e+03 | 2.434005e+03 |  26.99%| unknown
  0.1s|     1 |     0 |   114 |     - |    33M |   0 |3200 |3088 |3088 |   0 |  0 |   0 |   0 | 3.091005e+03 | 2.434005e+03 |  26.99%| unknown
  0.1s|     1 |     0 |   291 |     - |    35M |   0 |3200 |3088 |3114 |  26 |  1 |   0 |   0 | 3.078005e+03 | 2.434005e+03 |  26.46%| unknown
  0.1s|     1 |     0 |   344 |     - |    37M |   0 |3200 |3088 |3132 |  44 |  2 |   0 |   0 | 3.076505e+03 | 2.434005e+03 |  26.40%| unknown
  0.2s|     1 |     0 |   448 |     - |    37M |   0 |3200 |3088 |3153 |  65 |  3 |   0 |   0 | 3.072005e+03 | 2.434005e+03 |  26.21%| unknown
  0.2s|     1 |     0 |   528 |     - |    37M |   0 |3200 |3088 |3169 |  81 |  4 |   0 |   0 | 3.066005e+03 | 2.434005e+03 |  25.97%| unknown
  0.2s|     1 |     0 |   535 |     - |    38M |   0 |3200 |3088 |3174 |  86 |  5 |   0 |   0 | 3.065255e+03 | 2.434005e+03 |  25.93%| unknown
  0.2s|     1 |     0 |   635 |     - |    38M |   0 |3200 |3088 |3190 | 102 |  6 |   0 |   0 | 3.061255e+03 | 2.434005e+03 |  25.77%| unknown
  0.3s|     1 |     0 |   726 |     - |    38M |   0 |3200 |3088 |3203 | 115 |  7 |   0 |   0 | 3.058088e+03 | 2.434005e+03 |  25.64%| unknown
  0.3s|     1 |     0 |   779 |     - |    39M |   0 |3200 |3088 |3214 | 126 |  8 |   0 |   0 | 3.055338e+03 | 2.434005e+03 |  25.53%| unknown
  0.3s|     1 |     0 |   818 |     - |    39M |   0 |3200 |3088 |3223 | 135 |  9 |   0 |   0 | 3.053338e+03 | 2.434005e+03 |  25.45%| unknown
  0.3s|     1 |     0 |   906 |     - |    40M |   0 |3200 |3088 |3234 | 146 | 10 |   0 |   0 | 3.050255e+03 | 2.434005e+03 |  25.32%| unknown
  0.3s|     1 |     0 |   951 |     - |    40M |   0 |3200 |3088 |3242 | 154 | 11 |   0 |   0 | 3.048755e+03 | 2.434005e+03 |  25.26%| unknown
  0.4s|     1 |     0 |   982 |     - |    40M |   0 |3200 |3088 |3254 | 166 | 12 |   0 |   0 | 3.047255e+03 | 2.434005e+03 |  25.20%| unknown
 time | node  | left  |LP iter|LP it/n|mem/heur|mdpt |vars |cons |rows |cuts |sepa|confs|strbr|  dualbound   | primalbound  |  gap   | compl. 
  0.4s|     1 |     0 |  1024 |     - |    41M |   0 |3200 |3088 |3262 | 174 | 13 |   0 |   0 | 3.045755e+03 | 2.434005e+03 |  25.13%| unknown
  0.4s|     1 |     0 |  1065 |     - |    41M |   0 |3200 |3088 |3271 | 183 | 14 |   0 |   0 | 3.044255e+03 | 2.434005e+03 |  25.07%| unknown
  0.4s|     1 |     0 |  1077 |     - |    41M |   0 |3200 |3088 |3275 | 187 | 15 |   0 |   0 | 3.043755e+03 | 2.434005e+03 |  25.05%| unknown
  0.4s|     1 |     0 |  1088 |     - |    42M |   0 |3200 |3088 |3278 | 190 | 16 |   0 |   0 | 3.043505e+03 | 2.434005e+03 |  25.04%| unknown
  0.4s|     1 |     0 |  1129 |     - |    42M |   0 |3200 |3088 |3266 | 200 | 17 |   0 |   0 | 3.042255e+03 | 2.434005e+03 |  24.99%| unknown
  0.4s|     1 |     0 |  1148 |     - |    42M |   0 |3200 |3088 |3273 | 207 | 18 |   0 |   0 | 3.041755e+03 | 2.434005e+03 |  24.97%| unknown
  0.5s|     1 |     0 |  1192 |     - |    43M |   0 |3200 |3088 |3281 | 215 | 19 |   0 |   0 | 3.040005e+03 | 2.434005e+03 |  24.90%| unknown
  0.5s|     1 |     0 |  1225 |     - |    43M |   0 |3200 |3088 |3289 | 223 | 20 |   0 |   0 | 3.039380e+03 | 2.434005e+03 |  24.87%| unknown
  0.5s|     1 |     0 |  1237 |     - |    43M |   0 |3200 |3088 |3292 | 226 | 21 |   0 |   0 | 3.038880e+03 | 2.434005e+03 |  24.85%| unknown
  0.5s|     1 |     0 |  1257 |     - |    43M |   0 |3200 |3088 |3294 | 228 | 22 |   0 |   0 | 3.038380e+03 | 2.434005e+03 |  24.83%| unknown
  1.5s|     1 |     2 |  3885 |     - |    44M |   0 |3200 |3088 |3294 | 228 | 24 |   0 |  24 | 3.014380e+03 | 2.434005e+03 |  23.84%| unknown
d15.0s|    85 |    86 | 32613 | 373.3 |adaptive|  19 |3200 |3093 |3308 |   0 |  1 |   5 |1095 | 2.976505e+03 | 2.438005e+03 |  22.09%| unknown
 15.7s|   100 |   101 | 38866 | 379.9 |    56M |  19 |3200 |3093 |3314 | 798 |  1 |   5 |1119 | 2.976505e+03 | 2.438005e+03 |  22.09%| unknown
o20.0s|   159 |   160 | 66566 | 413.3 |objpscos|  19 |3200 |3095 |3415 |1392 |  1 |   7 |1367 | 2.976505e+03 | 2.476005e+03 |  20.21%| unknown
 22.3s|   200 |   201 | 81751 | 404.5 |    73M |  22 |3200 |3095 |3383 |1627 |  1 |   7 |1508 | 2.976505e+03 | 2.476005e+03 |  20.21%| unknown
 time | node  | left  |LP iter|LP it/n|mem/heur|mdpt |vars |cons |rows |cuts |sepa|confs|strbr|  dualbound   | primalbound  |  gap   | compl. 
 32.7s|   300 |   301 |147975 | 490.7 |    93M |  22 |3200 |3112 |3738 |3180 |  8 |  24 |2007 | 2.945130e+03 | 2.476005e+03 |  18.95%| unknown
L43.5s|   359 |   360 |204928 | 568.9 |    rins|  22 |3200 |3112 |3590 |4875 |  1 |  24 |2611 | 2.922630e+03 | 2.498005e+03 |  17.00%| unknown
r51.2s|   399 |   398 |248635 | 621.6 |shifting|  22 |3200 |3112 |3606 |5926 |  0 |  24 |2871 | 2.906505e+03 | 2.498005e+03 |  16.35%| unknown
r51.3s|   399 |   398 |248641 | 621.6 |shifting|  22 |3200 |3112 |3607 |5927 |  1 |  24 |2871 | 2.906505e+03 | 2.498005e+03 |  16.35%| unknown
i51.4s|   399 |   340 |248725 | 621.8 |  oneopt|  22 |3200 |3088 |3607 |5927 |  2 |  24 |2874 | 2.906505e+03 | 2.641005e+03 |  10.05%| unknown
 51.5s|   400 |   341 |250006 | 623.4 |   117M |  22 |3200 |3088 |3597 |5927 |  1 |  24 |2884 | 2.906505e+03 | 2.641005e+03 |  10.05%| unknown
*52.3s|   405 |   228 |255346 | 628.9 |    LP  |  22 |3200 |3088 |3611 |5930 |  1 |  24 |2911 | 2.906505e+03 | 2.685005e+03 |   8.25%|   7.20%
 60.7s|   500 |   211 |314675 | 628.1 |   118M |  22 |3200 |3090 |3634 |5930 |  0 |  26 |3196 | 2.893505e+03 | 2.685005e+03 |   7.77%|  14.57%
*68.7s|   585 |   139 |375947 | 641.6 |    LP  |  22 |3200 |3097 |3545 |5930 |  1 |  33 |3465 | 2.891505e+03 | 2.721005e+03 |   6.27%|  22.26%
 70.8s|   600 |   134 |391408 | 651.3 |   119M |  22 |3200 |3108 |3643 |5930 |  1 |  44 |3558 | 2.891505e+03 | 2.721005e+03 |   6.27%|  26.29%
 85.7s|   700 |   102 |504696 | 720.2 |   119M |  22 |3200 |3133 |3714 |5930 |  0 |  69 |4142 | 2.883505e+03 | 2.721005e+03 |   5.97%|  55.62%
  102s|   800 |    46 |633314 | 791.1 |   119M |  22 |3200 |3134 |3763 |5930 |  0 |  70 |4559 | 2.859130e+03 | 2.721005e+03 |   5.08%|  84.98%

SCIP Status        : problem is solved [optimal solution found]
Solving Time (sec) : 109.16
Solving Nodes      : 848
Primal Bound       : +2.72100452550304e+03 (97 solutions)
Dual Bound         : +2.72100452550304e+03
Gap                : 0.00 %
Solve Status: optimal
Solve Time: 109.16 seconds
